\ LP format - for model browsing. Use MPS format to capture full model detail.
Maximize
obj:   x[1] + x[96] + x[64] + x[68] + x[69] + x[8] + x[18] + x[110] + x[47]
   + x[112] + x[50] + x[84] + x[142] + x[86] + x[59] + x[28] + x[61]
   + x[101] + x[2] + x[65] + x[130] + x[99] + x[72] + x[14] + x[79] + x[81]
   + x[57] + x[60] + x[3] + x[83] + x[49] + x[71] + x[9] + x[103] + x[44]
   + x[143] + x[144] + x[113] + x[146] + x[115] + x[54] + x[105] + x[15]
   + x[29] + x[150] + x[4] + x[10] + x[148] + x[23] + x[38] + x[40] + x[56]
   + x[66] + x[70] + x[74] + x[78] + x[85] + x[93] + x[107] + x[114]
   + x[118] + x[120] + x[124] + x[5] + x[129] + x[6] + x[7] + x[104]
   + x[42] + x[17] + x[21] + x[32] + x[98] + x[131] + x[102] + x[139]
   + x[140] + x[116] + x[62] + x[22] + x[121] + x[126] + x[34] + x[67]
   + x[45] + x[141] + x[26] + x[147] + x[122] + x[125] + x[135] + x[12]
   + x[145] + x[24] + x[41] + x[76] + x[77] + x[25] + x[94] + x[117]
   + x[19] + x[36] + x[55] + x[11] + x[109] + x[51] + x[73] + x[20] + x[35]
   + x[31] + x[92] + x[138] + x[95] + x[133] + x[89] + x[13] + x[100]
   + x[111] + x[80] + x[149] + x[27] + x[16] + x[52] + x[91] + x[106]
   + x[88] + x[137] + x[43] + x[90] + x[58] + x[134] + x[82] + x[39]
   + x[63] + x[75] + x[123] + x[33] + x[53] + x[30] + x[46] + x[136]
   + x[48] + x[127] + x[132] + x[97] + x[87] + x[37] + x[128] + x[119]
   + x[108]
Subject To
 nod1: 17 x[1] + x[96] + x[64] + x[68] + x[69] + x[8] + x[18] + x[110]
   + x[47] + x[112] + x[50] + x[84] + x[142] + x[86] + x[59] + x[28]
   + x[61] + x[101] <= 17
 nod96: x[1] + 17 x[96] + x[8] + x[18] + x[61] + x[60] + x[44] + x[115]
   + x[15] + x[70] + x[93] + x[102] + x[116] + x[135] + x[41] + x[94]
   + x[39] + x[127] <= 17
 nod64: x[1] + 12 x[64] + x[79] + x[81] + x[57] + x[83] + x[129] + x[104]
   + x[42] + x[21] + x[147] + x[97] + x[37] <= 12
 nod68: x[1] + 18 x[68] + x[81] + x[57] + x[3] + x[74] + x[78] + x[120]
   + x[5] + x[6] + x[45] + x[125] + x[20] + x[89] + x[58] + x[123] + x[53]
   + x[37] + x[119] <= 18
 nod69: x[1] + 15 x[69] + x[8] + x[83] + x[71] + x[113] + x[7] + x[21]
   + x[62] + x[35] + x[31] + x[92] + x[90] + x[75] + x[97] + x[108] <= 15
 nod8: x[1] + x[96] + x[69] + 14 x[8] + x[84] + x[61] + x[70] + x[74]
   + x[114] + x[6] + x[22] + x[135] + x[12] + x[145] + x[24] <= 14
 nod18: x[1] + x[96] + 13 x[18] + x[59] + x[79] + x[104] + x[98] + x[55]
   + x[20] + x[106] + x[137] + x[43] + x[90] + x[58] <= 13
 nod110: x[1] + 17 x[110] + x[56] + x[129] + x[6] + x[21] + x[98] + x[41]
   + x[51] + x[89] + x[91] + x[88] + x[63] + x[123] + x[33] + x[46]
   + x[127] + x[87] <= 17
 nod47: x[1] + 12 x[47] + x[86] + x[150] + x[6] + x[104] + x[42] + x[140]
   + x[11] + x[134] + x[39] + x[123] + x[87] <= 12
 nod112: x[1] + 13 x[112] + x[143] + x[4] + x[66] + x[70] + x[22] + x[76]
   + x[27] + x[43] + x[82] + x[132] + x[97] + x[108] <= 13
 nod50: x[1] + 14 x[50] + x[2] + x[130] + x[146] + x[54] + x[118] + x[104]
   + x[147] + x[73] + x[92] + x[13] + x[149] + x[75] + x[48] <= 14
 nod84: x[1] + x[8] + 18 x[84] + x[57] + x[146] + x[105] + x[10] + x[70]
   + x[93] + x[107] + x[42] + x[122] + x[25] + x[19] + x[55] + x[89]
   + x[137] + x[37] + x[108] <= 18
 nod142: x[1] + 20 x[142] + x[83] + x[9] + x[115] + x[15] + x[120] + x[7]
   + x[102] + x[34] + x[122] + x[117] + x[31] + x[92] + x[95] + x[133]
   + x[137] + x[58] + x[46] + x[132] + x[119] <= 20
 nod86: x[1] + x[47] + 14 x[86] + x[59] + x[113] + x[40] + x[114] + x[7]
   + x[125] + x[55] + x[31] + x[27] + x[137] + x[82] + x[128] <= 14
 nod59: x[1] + x[18] + x[86] + 15 x[59] + x[81] + x[9] + x[98] + x[116]
   + x[12] + x[76] + x[117] + x[20] + x[127] + x[132] + x[97] + x[87]
   <= 15
 nod28: x[1] + 11 x[28] + x[61] + x[57] + x[150] + x[78] + x[102] + x[12]
   + x[51] + x[133] + x[111] + x[88] <= 11
 nod61: x[1] + x[96] + x[8] + x[28] + 14 x[61] + x[83] + x[71] + x[66]
   + x[7] + x[147] + x[76] + x[11] + x[73] + x[149] + x[87] <= 14
 nod101: x[1] + 9 x[101] + x[71] + x[103] + x[23] + x[124] + x[7] + x[89]
   + x[149] + x[82] <= 9
 nod2: x[50] + 10 x[2] + x[65] + x[130] + x[99] + x[72] + x[14] + x[79]
   + x[81] + x[57] + x[60] <= 10
 nod65: x[2] + 15 x[65] + x[105] + x[4] + x[38] + x[66] + x[78] + x[102]
   + x[62] + x[147] + x[41] + x[20] + x[27] + x[91] + x[88] + x[48] <= 15
 nod130: x[50] + x[2] + 9 x[130] + x[23] + x[85] + x[7] + x[62] + x[12]
   + x[19] + x[123] <= 9
 nod99: x[2] + 6 x[99] + x[83] + x[74] + x[145] + x[73] + x[20] <= 6
 nod72: x[2] + 19 x[72] + x[3] + x[9] + x[4] + x[70] + x[85] + x[114]
   + x[7] + x[22] + x[12] + x[117] + x[55] + x[11] + x[73] + x[35] + x[137]
   + x[58] + x[134] + x[82] <= 19
 nod14: x[2] + 6 x[14] + x[44] + x[115] + x[131] + x[102] + x[80] <= 6
 nod79: x[64] + x[18] + x[2] + 13 x[79] + x[4] + x[5] + x[6] + x[21]
   + x[140] + x[62] + x[26] + x[63] + x[30] + x[128] <= 13
 nod81: x[64] + x[68] + x[59] + x[2] + 13 x[81] + x[148] + x[56] + x[124]
   + x[135] + x[145] + x[117] + x[19] + x[89] + x[97] <= 13
 nod57: x[64] + x[68] + x[84] + x[28] + x[2] + 21 x[57] + x[115] + x[54]
   + x[4] + x[38] + x[107] + x[21] + x[32] + x[125] + x[36] + x[11]
   + x[109] + x[52] + x[137] + x[58] + x[123] + x[46] <= 21
 nod60: x[96] + x[2] + 15 x[60] + x[4] + x[78] + x[93] + x[114] + x[116]
   + x[94] + x[73] + x[13] + x[100] + x[82] + x[46] + x[132] + x[87] <= 15
 nod3: x[68] + x[72] + 18 x[3] + x[83] + x[49] + x[71] + x[9] + x[103]
   + x[44] + x[143] + x[144] + x[113] + x[146] + x[115] + x[54] + x[105]
   + x[15] + x[29] + x[150] <= 18
 nod83: x[64] + x[69] + x[142] + x[61] + x[99] + x[3] + 13 x[83] + x[71]
   + x[66] + x[116] + x[35] + x[106] + x[39] + x[48] <= 13
 nod49: x[3] + 10 x[49] + x[23] + x[38] + x[102] + x[116] + x[67] + x[117]
   + x[36] + x[55] + x[128] <= 10
 nod71: x[69] + x[61] + x[101] + x[3] + x[83] + 16 x[71] + x[146] + x[115]
   + x[148] + x[56] + x[129] + x[104] + x[98] + x[131] + x[90] + x[48]
   + x[97] <= 16
 nod9: x[142] + x[59] + x[72] + x[3] + 16 x[9] + x[85] + x[104] + x[98]
   + x[102] + x[45] + x[147] + x[41] + x[76] + x[77] + x[25] + x[94]
   + x[117] <= 16
 nod103: x[101] + x[3] + 12 x[103] + x[38] + x[120] + x[5] + x[17] + x[77]
   + x[90] + x[30] + x[48] + x[132] + x[128] <= 12
 nod44: x[96] + x[14] + x[3] + 14 x[44] + x[38] + x[56] + x[5] + x[45]
   + x[12] + x[25] + x[13] + x[134] + x[82] + x[39] + x[33] <= 14
 nod143: x[112] + x[3] + 17 x[143] + x[146] + x[15] + x[4] + x[66] + x[42]
   + x[131] + x[139] + x[109] + x[100] + x[27] + x[91] + x[134] + x[87]
   + x[37] + x[119] <= 17
 nod144: x[3] + 10 x[144] + x[148] + x[56] + x[129] + x[147] + x[135]
   + x[145] + x[55] + x[89] + x[137] <= 10
 nod113: x[69] + x[86] + x[3] + 24 x[113] + x[10] + x[70] + x[85] + x[107]
   + x[118] + x[5] + x[6] + x[42] + x[140] + x[34] + x[125] + x[135]
   + x[145] + x[36] + x[55] + x[11] + x[27] + x[16] + x[90] + x[123]
   + x[46] <= 24
 nod146: x[50] + x[84] + x[3] + x[71] + x[143] + 13 x[146] + x[23] + x[56]
   + x[120] + x[129] + x[116] + x[11] + x[80] + x[119] <= 13
 nod115: x[96] + x[142] + x[14] + x[57] + x[3] + x[71] + 15 x[115] + x[141]
   + x[26] + x[36] + x[31] + x[58] + x[134] + x[53] + x[132] + x[119]
   <= 15
 nod54: x[50] + x[57] + x[3] + 16 x[54] + x[56] + x[74] + x[93] + x[145]
   + x[19] + x[20] + x[35] + x[13] + x[80] + x[106] + x[75] + x[128]
   + x[119] <= 16
 nod105: x[84] + x[65] + x[3] + 13 x[105] + x[38] + x[70] + x[26] + x[24]
   + x[73] + x[27] + x[106] + x[33] + x[53] + x[128] <= 13
 nod15: x[96] + x[142] + x[3] + x[143] + 11 x[15] + x[23] + x[38] + x[42]
   + x[116] + x[22] + x[121] + x[27] <= 11
 nod29: x[3] + 12 x[29] + x[74] + x[93] + x[114] + x[32] + x[77] + x[55]
   + x[80] + x[88] + x[134] + x[53] + x[97] <= 12
 nod150: x[47] + x[28] + x[3] + 13 x[150] + x[26] + x[41] + x[11] + x[31]
   + x[138] + x[13] + x[16] + x[33] + x[127] + x[37] <= 13
 nod4: x[112] + x[65] + x[72] + x[79] + x[57] + x[60] + x[143] + 24 x[4]
   + x[10] + x[148] + x[23] + x[38] + x[40] + x[56] + x[66] + x[70] + x[74]
   + x[78] + x[85] + x[93] + x[107] + x[114] + x[118] + x[120] + x[124]
   <= 24
 nod10: x[84] + x[113] + x[4] + 19 x[10] + x[66] + x[70] + x[78] + x[114]
   + x[118] + x[17] + x[62] + x[41] + x[19] + x[36] + x[55] + x[11]
   + x[109] + x[51] + x[73] + x[20] <= 19
 nod148: x[81] + x[71] + x[144] + x[4] + 11 x[148] + x[122] + x[12] + x[36]
   + x[89] + x[137] + x[132] + x[87] <= 11
 nod23: x[101] + x[130] + x[49] + x[146] + x[15] + x[4] + 15 x[23] + x[118]
   + x[116] + x[122] + x[77] + x[134] + x[63] + x[33] + x[53] + x[30]
   <= 15
 nod38: x[65] + x[57] + x[49] + x[103] + x[44] + x[105] + x[15] + x[4]
   + 15 x[38] + x[32] + x[98] + x[77] + x[94] + x[109] + x[133] + x[82]
   <= 15
 nod40: x[86] + x[4] + 13 x[40] + x[74] + x[98] + x[139] + x[62] + x[126]
   + x[76] + x[94] + x[138] + x[27] + x[87] + x[128] <= 13
 nod56: x[110] + x[81] + x[71] + x[44] + x[144] + x[146] + x[54] + x[4]
   + 23 x[56] + x[78] + x[32] + x[116] + x[22] + x[145] + x[94] + x[19]
   + x[55] + x[92] + x[111] + x[52] + x[46] + x[136] + x[127] + x[128]
   <= 23
 nod66: x[112] + x[61] + x[65] + x[83] + x[143] + x[4] + x[10] + 16 x[66]
   + x[70] + x[114] + x[124] + x[5] + x[26] + x[125] + x[25] + x[51]
   + x[75] <= 16
 nod70: x[96] + x[8] + x[112] + x[84] + x[72] + x[113] + x[105] + x[4]
   + x[10] + x[66] + 18 x[70] + x[93] + x[104] + x[32] + x[147] + x[122]
   + x[117] + x[51] + x[80] <= 18
 nod74: x[68] + x[8] + x[99] + x[54] + x[29] + x[4] + x[40] + 23 x[74]
   + x[124] + x[42] + x[98] + x[62] + x[94] + x[36] + x[55] + x[51] + x[31]
   + x[133] + x[100] + x[91] + x[43] + x[53] + x[46] + x[119] <= 23
 nod78: x[68] + x[28] + x[65] + x[60] + x[4] + x[10] + x[56] + 13 x[78]
   + x[62] + x[31] + x[111] + x[82] + x[30] + x[136] <= 13
 nod85: x[130] + x[72] + x[9] + x[113] + x[4] + 16 x[85] + x[5] + x[42]
   + x[62] + x[41] + x[77] + x[117] + x[13] + x[149] + x[106] + x[90]
   + x[97] <= 16
 nod93: x[96] + x[84] + x[60] + x[54] + x[29] + x[4] + x[70] + 12 x[93]
   + x[124] + x[26] + x[12] + x[53] + x[30] <= 12
 nod107: x[84] + x[57] + x[113] + x[4] + 8 x[107] + x[32] + x[22] + x[12]
   + x[36] <= 8
 nod114: x[8] + x[86] + x[72] + x[60] + x[29] + x[4] + x[10] + x[66]
   + 17 x[114] + x[21] + x[67] + x[20] + x[92] + x[89] + x[137] + x[58]
   + x[30] + x[128] <= 17
 nod118: x[50] + x[113] + x[4] + x[10] + x[23] + 16 x[118] + x[124]
   + x[125] + x[135] + x[94] + x[92] + x[149] + x[27] + x[88] + x[43]
   + x[90] + x[108] <= 16
 nod120: x[68] + x[142] + x[103] + x[146] + x[4] + 14 x[120] + x[102]
   + x[139] + x[116] + x[147] + x[41] + x[25] + x[75] + x[136] + x[37]
   <= 14
 nod124: x[101] + x[81] + x[4] + x[66] + x[74] + x[93] + x[118] + 15 x[124]
   + x[98] + x[140] + x[121] + x[73] + x[89] + x[48] + x[87] + x[128]
   <= 15
 nod5: x[68] + x[79] + x[103] + x[44] + x[113] + x[66] + x[85] + 14 x[5]
   + x[129] + x[6] + x[7] + x[104] + x[42] + x[17] + x[21] <= 14
 nod129: x[64] + x[110] + x[71] + x[144] + x[146] + x[5] + 14 x[129]
   + x[140] + x[62] + x[41] + x[31] + x[63] + x[75] + x[33] + x[87] <= 14
 nod6: x[68] + x[8] + x[110] + x[47] + x[79] + x[113] + x[5] + 19 x[6]
   + x[104] + x[32] + x[98] + x[131] + x[102] + x[139] + x[140] + x[116]
   + x[62] + x[22] + x[121] + x[126] <= 19
 nod7: x[69] + x[142] + x[86] + x[61] + x[101] + x[130] + x[72] + x[5]
   + 20 x[7] + x[21] + x[102] + x[139] + x[126] + x[34] + x[67] + x[45]
   + x[141] + x[26] + x[147] + x[122] + x[125] <= 20
 nod104: x[64] + x[18] + x[47] + x[50] + x[71] + x[9] + x[70] + x[5] + x[6]
   + 16 x[104] + x[116] + x[121] + x[24] + x[95] + x[133] + x[33] + x[48]
   <= 16
 nod42: x[64] + x[47] + x[84] + x[143] + x[113] + x[15] + x[74] + x[85]
   + x[5] + 19 x[42] + x[34] + x[41] + x[77] + x[94] + x[51] + x[138]
   + x[100] + x[149] + x[88] + x[58] <= 19
 nod17: x[103] + x[10] + x[5] + 7 x[17] + x[11] + x[95] + x[106] + x[88]
   <= 7
 nod21: x[64] + x[69] + x[110] + x[79] + x[57] + x[114] + x[5] + x[7]
   + 14 x[21] + x[32] + x[98] + x[26] + x[55] + x[106] + x[63] <= 14
 nod32: x[57] + x[29] + x[38] + x[56] + x[70] + x[107] + x[6] + x[21]
   + 18 x[32] + x[147] + x[135] + x[77] + x[31] + x[13] + x[80] + x[149]
   + x[52] + x[58] + x[39] <= 18
 nod98: x[18] + x[110] + x[59] + x[71] + x[9] + x[38] + x[40] + x[74]
   + x[124] + x[6] + x[21] + 17 x[98] + x[22] + x[145] + x[41] + x[13]
   + x[80] + x[136] <= 17
 nod131: x[14] + x[71] + x[143] + x[6] + 12 x[131] + x[22] + x[45] + x[122]
   + x[55] + x[73] + x[88] + x[58] + x[75] <= 12
 nod102: x[96] + x[142] + x[28] + x[65] + x[14] + x[49] + x[9] + x[120]
   + x[6] + x[7] + 16 x[102] + x[147] + x[55] + x[88] + x[43] + x[53]
   + x[87] <= 16
 nod139: x[143] + x[40] + x[120] + x[6] + x[7] + 13 x[139] + x[116]
   + x[125] + x[12] + x[51] + x[35] + x[31] + x[136] + x[37] <= 13
 nod140: x[47] + x[79] + x[113] + x[124] + x[129] + x[6] + 16 x[140]
   + x[121] + x[122] + x[24] + x[51] + x[134] + x[39] + x[46] + x[136]
   + x[128] + x[108] <= 16
 nod116: x[96] + x[59] + x[60] + x[83] + x[49] + x[146] + x[15] + x[23]
   + x[56] + x[120] + x[6] + x[104] + x[139] + 16 x[116] + x[67] + x[137]
   + x[48] <= 16
 nod62: x[69] + x[65] + x[130] + x[79] + x[10] + x[40] + x[74] + x[78]
   + x[85] + x[129] + x[6] + 17 x[62] + x[126] + x[122] + x[94] + x[117]
   + x[39] + x[136] <= 17
 nod22: x[8] + x[112] + x[72] + x[15] + x[56] + x[107] + x[6] + x[98]
   + x[131] + 18 x[22] + x[125] + x[41] + x[149] + x[27] + x[90] + x[58]
   + x[39] + x[75] + x[123] <= 18
 nod121: x[15] + x[124] + x[6] + x[104] + x[140] + 14 x[121] + x[45]
   + x[109] + x[51] + x[73] + x[31] + x[138] + x[100] + x[80] + x[27]
   <= 14
 nod126: x[40] + x[6] + x[7] + x[62] + 9 x[126] + x[89] + x[111] + x[80]
   + x[91] + x[134] <= 9
 nod34: x[142] + x[113] + x[7] + x[42] + 9 x[34] + x[109] + x[31] + x[138]
   + x[52] + x[127] <= 9
 nod67: x[49] + x[114] + x[7] + x[116] + 8 x[67] + x[27] + x[52] + x[91]
   + x[90] <= 8
 nod45: x[68] + x[9] + x[44] + x[7] + x[131] + x[121] + 10 x[45] + x[25]
   + x[19] + x[55] + x[13] <= 10
 nod141: x[115] + x[7] + 9 x[141] + x[122] + x[11] + x[88] + x[134] + x[30]
   + x[132] + x[119] <= 9
 nod26: x[79] + x[115] + x[105] + x[150] + x[66] + x[93] + x[7] + x[21]
   + 15 x[26] + x[122] + x[41] + x[77] + x[94] + x[89] + x[137] + x[132]
   <= 15
 nod147: x[64] + x[50] + x[61] + x[65] + x[9] + x[144] + x[70] + x[120]
   + x[7] + x[32] + x[102] + 17 x[147] + x[135] + x[145] + x[133] + x[52]
   + x[91] + x[58] <= 17
 nod122: x[84] + x[142] + x[148] + x[23] + x[70] + x[7] + x[131] + x[140]
   + x[62] + x[141] + x[26] + 17 x[122] + x[125] + x[77] + x[117] + x[13]
   + x[16] + x[75] <= 17
 nod125: x[68] + x[86] + x[57] + x[113] + x[66] + x[118] + x[7] + x[139]
   + x[22] + x[122] + 15 x[125] + x[135] + x[19] + x[31] + x[82] + x[30]
   <= 15
 nod135: x[96] + x[8] + x[81] + x[144] + x[113] + x[118] + x[32] + x[147]
   + x[125] + 14 x[135] + x[145] + x[95] + x[111] + x[52] + x[119] <= 14
 nod12: x[8] + x[59] + x[28] + x[130] + x[72] + x[44] + x[148] + x[93]
   + x[107] + x[139] + 12 x[12] + x[133] + x[89] <= 12
 nod145: x[8] + x[99] + x[81] + x[144] + x[113] + x[54] + x[56] + x[98]
   + x[147] + x[135] + 14 x[145] + x[36] + x[55] + x[133] + x[13] <= 14
 nod24: x[8] + x[105] + x[104] + x[140] + 6 x[24] + x[134] + x[46] <= 6
 nod41: x[96] + x[110] + x[65] + x[9] + x[150] + x[10] + x[85] + x[120]
   + x[129] + x[42] + x[98] + x[22] + x[26] + 21 x[41] + x[77] + x[11]
   + x[73] + x[111] + x[106] + x[53] + x[30] + x[46] <= 21
 nod76: x[112] + x[59] + x[61] + x[9] + x[40] + 11 x[76] + x[36] + x[11]
   + x[51] + x[91] + x[30] + x[128] <= 11
 nod77: x[9] + x[103] + x[29] + x[23] + x[38] + x[85] + x[42] + x[32]
   + x[26] + x[122] + x[41] + 20 x[77] + x[20] + x[133] + x[89] + x[90]
   + x[75] + x[53] + x[136] + x[87] + x[128] <= 20
 nod25: x[84] + x[9] + x[44] + x[66] + x[120] + x[45] + 15 x[25] + x[117]
   + x[19] + x[20] + x[95] + x[30] + x[46] + x[136] + x[48] + x[127] <= 15
 nod94: x[96] + x[60] + x[9] + x[38] + x[40] + x[56] + x[74] + x[118]
   + x[42] + x[62] + x[26] + 17 x[94] + x[27] + x[58] + x[63] + x[30]
   + x[46] + x[48] <= 17
 nod117: x[142] + x[59] + x[72] + x[81] + x[49] + x[9] + x[70] + x[85]
   + x[62] + x[122] + x[25] + 13 x[117] + x[11] + x[51] <= 13
 nod19: x[84] + x[130] + x[81] + x[54] + x[10] + x[56] + x[45] + x[125]
   + x[25] + 12 x[19] + x[149] + x[134] + x[82] <= 12
 nod36: x[57] + x[49] + x[113] + x[115] + x[10] + x[148] + x[74] + x[107]
   + x[145] + x[76] + 17 x[36] + x[20] + x[92] + x[16] + x[137] + x[39]
   + x[123] + x[87] <= 17
 nod55: x[18] + x[84] + x[86] + x[72] + x[49] + x[144] + x[113] + x[29]
   + x[10] + x[56] + x[74] + x[21] + x[131] + x[102] + x[45] + x[145]
   + 20 x[55] + x[20] + x[89] + x[137] + x[37] <= 20
 nod11: x[47] + x[61] + x[72] + x[57] + x[113] + x[146] + x[150] + x[10]
   + x[17] + x[141] + x[41] + x[76] + x[117] + 18 x[11] + x[35] + x[31]
   + x[92] + x[138] + x[95] <= 18
 nod109: x[57] + x[143] + x[10] + x[38] + x[121] + x[34] + 11 x[109]
   + x[89] + x[16] + x[91] + x[82] + x[123] <= 11
 nod51: x[110] + x[28] + x[10] + x[66] + x[70] + x[74] + x[42] + x[139]
   + x[140] + x[121] + x[76] + x[117] + 17 x[51] + x[20] + x[92] + x[100]
   + x[63] + x[48] <= 17
 nod73: x[50] + x[61] + x[99] + x[72] + x[60] + x[105] + x[10] + x[124]
   + x[131] + x[121] + x[41] + 16 x[73] + x[27] + x[52] + x[58] + x[128]
   + x[119] <= 16
 nod20: x[68] + x[18] + x[59] + x[65] + x[99] + x[54] + x[10] + x[114]
   + x[77] + x[25] + x[36] + x[55] + x[51] + 14 x[20] + x[39] <= 14
 nod35: x[69] + x[72] + x[83] + x[54] + x[139] + x[11] + 7 x[35] + x[13]
   <= 7
 nod31: x[69] + x[142] + x[86] + x[115] + x[150] + x[74] + x[78] + x[129]
   + x[32] + x[139] + x[121] + x[34] + x[125] + x[11] + 19 x[31] + x[134]
   + x[53] + x[46] + x[48] + x[87] <= 19
 nod92: x[69] + x[50] + x[142] + x[56] + x[114] + x[118] + x[36] + x[11]
   + x[51] + 12 x[92] + x[111] + x[37] + x[119] <= 12
 nod138: x[150] + x[40] + x[42] + x[121] + x[34] + x[11] + 6 x[138] <= 6
 nod95: x[142] + x[104] + x[17] + x[135] + x[25] + x[11] + 9 x[95] + x[52]
   + x[134] + x[127] <= 9
 nod133: x[142] + x[28] + x[38] + x[74] + x[104] + x[147] + x[12] + x[145]
   + x[77] + 15 x[133] + x[89] + x[111] + x[149] + x[137] + x[82] + x[97]
   <= 15
 nod89: x[68] + x[110] + x[84] + x[101] + x[81] + x[144] + x[148] + x[114]
   + x[124] + x[126] + x[26] + x[12] + x[77] + x[55] + x[109] + x[133]
   + 19 x[89] + x[137] + x[75] + x[87] <= 19
 nod13: x[50] + x[60] + x[44] + x[54] + x[150] + x[85] + x[32] + x[98]
   + x[45] + x[122] + x[145] + x[35] + 16 x[13] + x[100] + x[111] + x[80]
   + x[149] <= 16
 nod100: x[60] + x[143] + x[74] + x[42] + x[121] + x[51] + x[13]
   + 10 x[100] + x[43] + x[82] + x[53] <= 10
 nod111: x[28] + x[56] + x[78] + x[126] + x[135] + x[41] + x[92] + x[133]
   + x[13] + 13 x[111] + x[53] + x[48] + x[132] + x[119] <= 13
 nod80: x[14] + x[146] + x[54] + x[29] + x[70] + x[32] + x[98] + x[121]
   + x[126] + x[13] + 12 x[80] + x[53] + x[127] <= 12
 nod149: x[50] + x[61] + x[101] + x[85] + x[118] + x[42] + x[32] + x[22]
   + x[19] + x[133] + x[13] + 13 x[149] + x[27] + x[90] <= 13
 nod27: x[112] + x[86] + x[65] + x[143] + x[113] + x[105] + x[15] + x[40]
   + x[118] + x[22] + x[121] + x[67] + x[94] + x[73] + x[149] + 17 x[27]
   + x[43] + x[30] <= 17
 nod16: x[113] + x[150] + x[122] + x[36] + x[109] + 7 x[16] + x[52] + x[91]
   <= 7
 nod52: x[57] + x[56] + x[32] + x[34] + x[67] + x[147] + x[135] + x[73]
   + x[95] + x[16] + 12 x[52] + x[58] + x[123] <= 12
 nod91: x[110] + x[65] + x[143] + x[74] + x[126] + x[67] + x[147] + x[76]
   + x[109] + x[16] + 14 x[91] + x[106] + x[88] + x[90] + x[119] <= 14
 nod106: x[18] + x[83] + x[54] + x[105] + x[85] + x[17] + x[21] + x[41]
   + x[91] + 11 x[106] + x[132] + x[119] <= 11
 nod88: x[110] + x[28] + x[65] + x[29] + x[118] + x[42] + x[17] + x[131]
   + x[102] + x[141] + x[91] + 14 x[88] + x[137] + x[90] + x[123] <= 14
 nod137: x[18] + x[84] + x[142] + x[86] + x[72] + x[57] + x[144] + x[148]
   + x[114] + x[116] + x[26] + x[36] + x[55] + x[133] + x[89] + x[88]
   + 20 x[137] + x[43] + x[134] + x[46] + x[87] <= 20
 nod43: x[18] + x[112] + x[74] + x[118] + x[102] + x[100] + x[27] + x[137]
   + 10 x[43] + x[134] + x[39] <= 10
 nod90: x[69] + x[18] + x[71] + x[103] + x[113] + x[85] + x[118] + x[22]
   + x[67] + x[77] + x[149] + x[91] + x[88] + 15 x[90] + x[48] + x[127]
   <= 15
 nod58: x[68] + x[18] + x[142] + x[72] + x[57] + x[115] + x[114] + x[42]
   + x[32] + x[131] + x[22] + x[147] + x[94] + x[73] + x[52] + 15 x[58]
   <= 15
 nod134: x[47] + x[72] + x[44] + x[143] + x[115] + x[29] + x[23] + x[140]
   + x[126] + x[141] + x[24] + x[19] + x[31] + x[95] + x[137] + x[43]
   + 18 x[134] + x[48] + x[97] <= 18
 nod82: x[112] + x[86] + x[101] + x[72] + x[60] + x[44] + x[38] + x[78]
   + x[125] + x[19] + x[109] + x[133] + x[100] + 17 x[82] + x[33] + x[30]
   + x[46] + x[97] <= 17
 nod39: x[96] + x[47] + x[83] + x[44] + x[32] + x[140] + x[62] + x[22]
   + x[36] + x[20] + x[43] + 15 x[39] + x[123] + x[46] + x[136] + x[127]
   <= 15
 nod63: x[110] + x[79] + x[23] + x[129] + x[21] + x[94] + x[51] + 9 x[63]
   + x[53] + x[37] <= 9
 nod75: x[69] + x[50] + x[54] + x[66] + x[120] + x[129] + x[131] + x[22]
   + x[122] + x[77] + x[89] + 11 x[75] <= 11
 nod123: x[68] + x[110] + x[47] + x[130] + x[57] + x[113] + x[22] + x[36]
   + x[109] + x[52] + x[88] + x[39] + 15 x[123] + x[53] + x[48] + x[97]
   <= 15
 nod33: x[110] + x[44] + x[105] + x[150] + x[23] + x[129] + x[104] + x[82]
   + 9 x[33] + x[97] <= 9
 nod53: x[68] + x[115] + x[105] + x[29] + x[23] + x[74] + x[93] + x[102]
   + x[41] + x[77] + x[31] + x[100] + x[111] + x[80] + x[63] + x[123]
   + 17 x[53] + x[119] <= 17
 nod30: x[79] + x[103] + x[23] + x[78] + x[93] + x[114] + x[141] + x[125]
   + x[41] + x[76] + x[25] + x[94] + x[27] + x[82] + 15 x[30] + x[136]
   <= 15
 nod46: x[110] + x[142] + x[57] + x[60] + x[113] + x[56] + x[74] + x[140]
   + x[24] + x[41] + x[25] + x[94] + x[31] + x[137] + x[82] + x[39]
   + 18 x[46] + x[127] + x[132] <= 18
 nod136: x[56] + x[78] + x[120] + x[98] + x[139] + x[140] + x[62] + x[77]
   + x[25] + x[39] + x[30] + 12 x[136] + x[132] <= 12
 nod48: x[50] + x[65] + x[83] + x[71] + x[103] + x[124] + x[104] + x[116]
   + x[25] + x[94] + x[51] + x[31] + x[111] + x[90] + x[134] + x[123]
   + 16 x[48] <= 16
 nod127: x[96] + x[110] + x[59] + x[150] + x[56] + x[34] + x[25] + x[95]
   + x[80] + x[90] + x[39] + x[46] + 13 x[127] + x[119] <= 13
 nod132: x[112] + x[142] + x[59] + x[60] + x[103] + x[115] + x[148]
   + x[141] + x[26] + x[111] + x[106] + x[46] + x[136] + 13 x[132] <= 13
 nod97: x[64] + x[69] + x[112] + x[59] + x[81] + x[71] + x[29] + x[85]
   + x[133] + x[134] + x[82] + x[123] + x[33] + 13 x[97] <= 13
 nod87: x[110] + x[47] + x[59] + x[61] + x[60] + x[143] + x[148] + x[40]
   + x[124] + x[129] + x[102] + x[77] + x[36] + x[31] + x[89] + x[137]
   + 16 x[87] <= 16
 nod37: x[64] + x[68] + x[84] + x[143] + x[150] + x[120] + x[139] + x[55]
   + x[92] + x[63] + 10 x[37] <= 10
 nod128: x[86] + x[79] + x[49] + x[103] + x[54] + x[105] + x[40] + x[56]
   + x[114] + x[124] + x[140] + x[76] + x[77] + x[73] + 14 x[128] <= 14
 nod119: x[68] + x[142] + x[143] + x[146] + x[115] + x[54] + x[74] + x[141]
   + x[135] + x[73] + x[92] + x[111] + x[91] + x[106] + x[53] + x[127]
   + 16 x[119] <= 16
 nod108: x[69] + x[112] + x[84] + x[118] + x[140] + 5 x[108] <= 5
Bounds
Binaries
 x[1] x[96] x[64] x[68] x[69] x[8] x[18] x[110] x[47] x[112] x[50] x[84]
 x[142] x[86] x[59] x[28] x[61] x[101] x[2] x[65] x[130] x[99] x[72] x[14]
 x[79] x[81] x[57] x[60] x[3] x[83] x[49] x[71] x[9] x[103] x[44] x[143]
 x[144] x[113] x[146] x[115] x[54] x[105] x[15] x[29] x[150] x[4] x[10]
 x[148] x[23] x[38] x[40] x[56] x[66] x[70] x[74] x[78] x[85] x[93] x[107]
 x[114] x[118] x[120] x[124] x[5] x[129] x[6] x[7] x[104] x[42] x[17] x[21]
 x[32] x[98] x[131] x[102] x[139] x[140] x[116] x[62] x[22] x[121] x[126]
 x[34] x[67] x[45] x[141] x[26] x[147] x[122] x[125] x[135] x[12] x[145]
 x[24] x[41] x[76] x[77] x[25] x[94] x[117] x[19] x[36] x[55] x[11] x[109]
 x[51] x[73] x[20] x[35] x[31] x[92] x[138] x[95] x[133] x[89] x[13] x[100]
 x[111] x[80] x[149] x[27] x[16] x[52] x[91] x[106] x[88] x[137] x[43]
 x[90] x[58] x[134] x[82] x[39] x[63] x[75] x[123] x[33] x[53] x[30] x[46]
 x[136] x[48] x[127] x[132] x[97] x[87] x[37] x[128] x[119] x[108]
End
